SPARKNaCl/why3-z3/sparknacl-hashing-rfsb509.adb_248_12_range_check_1.smt2
;; produced by z3_gnatprove.drv ;;
(set-info :smt-lib-version 2.5)
(set-info :source |VC generated by SPARK 2014|)
(set-info :category industrial)
(set-info :status unknown)
;;; generated by SMT-LIB2 driver
;;; SMT-LIB2 driver: bit-vectors, common part
;;; SMT-LIB2: integer arithmetic
(declare-datatypes ()
  ((int__ref (int__refqtmk (int__content Int)))))

(declare-datatypes ()
  ((bool__ref (bool__refqtmk (bool__content Bool)))))

(declare-sort tinteger_32B 0)

;; "tinteger_32B'int"
(declare-fun tinteger_32Bqtint (tinteger_32B) Int)

;; "tinteger_32B'axiom"
(assert
  (forall ((i tinteger_32B))
    (and
      (<= (- 2147483648) (tinteger_32Bqtint i))
      (<= (tinteger_32Bqtint i) 2147483647))))

;; "in_range"
(define-fun in_range ((x Int)) Bool
  (and (<= (- 2147483648) x) (<= x 2147483647)))

;; "to_rep"
(define-fun to_rep ((x tinteger_32B)) Int
  (tinteger_32Bqtint x))

;; "of_rep"
(declare-fun of_rep (Int) tinteger_32B)

;; "inversion_axiom"
(assert
  (forall ((x tinteger_32B))
    (! (= (of_rep (to_rep x)) x) :pattern ((to_rep x)) )))

;; "range_axiom"
(assert
  (forall ((x tinteger_32B))
    (! (in_range (to_rep x)) :pattern ((to_rep x)) )))

;; "coerce_axiom"
(assert
  (forall ((x Int))
    (! (=> (in_range x) (= (to_rep (of_rep x)) x)) :pattern ((to_rep
                                                               (of_rep x))) )))

;; "in_range"
(define-fun in_range1 ((x Int)) Bool
  (and (<= 0 x) (<= x 2147483647)))

(declare-sort byte 0)

;; "to_rep"
(declare-fun to_rep1 (byte) (_ BitVec 8))

;; "of_rep"
(declare-fun of_rep1 ((_ BitVec 8)) byte)

;; "inversion_axiom"
(assert
  (forall ((x byte)) (! (= (of_rep1 (to_rep1 x)) x) :pattern ((to_rep1 x)) )))

;; "range_axiom"
(assert true)

;; "coerce_axiom"
(assert
  (forall ((x (_ BitVec 8)))
    (! (= (to_rep1 (of_rep1 x)) x) :pattern ((to_rep1 (of_rep1 x))) )))

(declare-sort map1 0)

(declare-datatypes ()
  ((map__ref (map__refqtmk (map__content map1)))))

;; "has_bounds"
(declare-fun has_bounds (map1
  Int
  Int) Bool)

;; "get"
(declare-fun get (map1
  Int) byte)

(declare-datatypes ()
  ((t (tqtmk (rec__first tinteger_32B)(rec__last tinteger_32B)))))

;; "dynamic_property"
(define-fun dynamic_property ((range_first Int) (range_last Int) (low Int) (high Int)) Bool
  (and
    (in_range low)
    (and
      (in_range high)
      (=> (<= low high) (and (in_range1 low) (in_range1 high))))))

(declare-datatypes ()
  ((us_t (us_tqtmk (elts map1)(rt t)))))

;; "first"
(define-fun first ((a us_t)) Int
  (to_rep (rec__first (rt a))))

;; "last"
(define-fun last ((a us_t)) Int
  (to_rep (rec__last (rt a))))

;; "length"
(define-fun length ((a us_t)) Int
  (ite (<= (first a) (last a)) (+ (- (last a) (first a)) 1) 0))

;; "well_formed"
(define-fun well_formed ((a us_t)) Bool
  (has_bounds
    (elts a)
    (to_rep (rec__first (rt a)))
    (to_rep (rec__last (rt a)))))

(declare-sort us_main_type 0)

(declare-datatypes ()
  ((us_split_fields
   (us_split_fieldsqtmk (rec__ada___sparknacl__aes__aes128_key us_main_type)))))

(declare-datatypes ()
  ((us_rep (us_repqtmk (us_split_fields1 us_split_fields)))))

(declare-sort us_main_type1 0)

(declare-datatypes ()
  ((us_split_fields2
   (us_split_fieldsqtmk1
   (rec__ada___sparknacl__aes__aes128_round_keys us_main_type1)))))

(declare-datatypes ()
  ((us_rep1 (us_repqtmk1 (us_split_fields3 us_split_fields2)))))

(declare-sort map2 0)

(declare-datatypes ()
  ((map__ref1 (map__refqtmk1 (map__content1 map2)))))

;; "has_bounds"
(declare-fun has_bounds1 (map2
  Int
  Int) Bool)

;; "dynamic_invariant"
(define-fun dynamic_invariant ((temp___expr_371 map1) (temp___is_init_367 Bool) (temp___skip_constant_368 Bool) (temp___do_toplevel_369 Bool) (temp___do_typ_inv_370 Bool)) Bool
  (and
    (=>
      (= temp___is_init_367 true)
      (=>
        (= temp___do_toplevel_369 true)
        (= (bvand (to_rep1 (get temp___expr_371 63)) #xE0) #x00)))
    (has_bounds temp___expr_371 0 63)))

;; "in_range"
(define-fun in_range2 ((x Int)) Bool
  (and (<= 0 x) (<= x 47)))

(declare-const input us_t)

(declare-const key us_rep)

;; "key_expansion"
(declare-fun key_expansion (us_rep) us_rep1)

(declare-const round_keys us_rep1)

;; "dynamic_invariant"
(define-fun dynamic_invariant1 ((temp___expr_225 us_t) (temp___is_init_221 Bool) (temp___skip_constant_222 Bool) (temp___do_toplevel_223 Bool) (temp___do_typ_inv_224 Bool)) Bool
  (and
    (=>
      (not (= temp___skip_constant_222 true))
      (dynamic_property
        0
        2147483647
        (first temp___expr_225)
        (last temp___expr_225)))
    (well_formed temp___expr_225)))

;; "ada___ada___sparknacl__hashing__rfsb509__hash_local__hash__aggregate_def"
(declare-fun ada___ada___sparknacl__hashing__rfsb509__hash_local__hash__aggregate_def ((_ BitVec 8)) map1)

;; "key_expansion__post_axiom"
(assert true)

(declare-const output map1)

(declare-const block map2)

(declare-const bytes_remaining Int)

(declare-const block_index Int)

;; "block_index'unused"
(define-fun block_indexqtunused () int__ref
  (int__refqtmk block_index))

;; "bytes_remaining'unused"
(define-fun bytes_remainingqtunused () int__ref
  (int__refqtmk bytes_remaining))

;; "block'unused"
(define-fun blockqtunused () map__ref1
  (map__refqtmk1 block))

;; "output'unused"
(define-fun outputqtunused () map__ref
  (map__refqtmk output))

;; "Assume"
(assert (has_bounds output 0 31))

;; "Assume"
(assert (dynamic_invariant1 input true false true true))

;; "Assume"
(assert true)

;; "ada___ada___sparknacl__hashing__rfsb509__hash_local__round_keys__assume"
(define-fun ada___ada___sparknacl__hashing__rfsb509__hash_local__round_keys__assume 
  () us_rep1
  (key_expansion key))

;; "Ensures"
(assert true)

;; "key_expansion'result'unused"
(define-fun key_expansionqtresultqtunused () us_rep1
  ada___ada___sparknacl__hashing__rfsb509__hash_local__round_keys__assume)

;; "Assume"
(assert
  (= ada___ada___sparknacl__hashing__rfsb509__hash_local__round_keys__assume 
  round_keys))

;; "Assume"
(assert true)

(declare-const temp___956 map1)

;; "H"
(assert (has_bounds temp___956 0 63))

;; "H"
(assert
  (forall ((temp___955 Int))
    (! (=>
         (and (<= 0 temp___955) (<= temp___955 63))
         (= (to_rep1 (get temp___956 temp___955)) #x00)) :pattern ((get
                                                                    temp___956
                                                                    temp___955)) )))

;; "H"
(assert
  (= temp___956 (ada___ada___sparknacl__hashing__rfsb509__hash_local__hash__aggregate_def
                  #x00)))

;; "ada___ada___sparknacl__hashing__rfsb509__hash_local__hash__aggregate_def'result'unused"
(define-fun ada___ada___sparknacl__hashing__rfsb509__hash_local__hash__aggregate_defqtresultqtunused 
  () map1
  temp___956)

;; "Assert"
(assert (= (bvand (to_rep1 (get temp___956 63)) #xE0) #x00))

;; "Assert"
(assert (= (bvand (to_rep1 (get temp___956 63)) #xE0) #x00))

(declare-const hash map1)

;; "hash'unused"
(define-fun hashqtunused () map__ref
  (map__refqtmk hash))

;; "H"
(assert (= hash temp___956))

;; "Assume"
(assert (dynamic_invariant hash true false true true))

;; "Assume"
(assert (has_bounds1 block 0 47))

;; "Assume"
(assert true)

;; "Assume"
(assert (in_range2 bytes_remaining))

;; "Assume"
(assert true)

;; "Assume"
(assert (in_range2 block_index))

;; "map__content'result'unused"
(define-fun map__contentqtresultqtunused () map1
  hash)

;; "int__content'result'unused"
(define-fun int__contentqtresultqtunused () Int
  bytes_remaining)

(declare-const hash1 map1)

(declare-const bytes_remaining1 Int)

;; "bytes_remaining'unused"
(define-fun bytes_remainingqtunused1 () int__ref
  (int__refqtmk bytes_remaining1))

;; "hash'unused"
(define-fun hashqtunused1 () map__ref
  (map__refqtmk hash1))

;; "H"
(assert (<= bytes_remaining1 (length input)))

;; "H"
(assert (dynamic_invariant hash1 true true true true))

;; "H"
(assert (in_range2 bytes_remaining1))

;; "H"
(assert true)

;; "H"
(assert true)

;; "int__content'result'unused"
(define-fun int__contentqtresultqtunused1 () Int
  bytes_remaining1)

;; "o"
(define-fun o () Int
  (+ 0 bytes_remaining1))

;; "infix +'result'unused"
(define-fun infix_plqtresultqtunused () Int
  o)

(declare-const block_index1 Int)

;; "block_index'unused"
(define-fun block_indexqtunused1 () int__ref
  (int__refqtmk block_index1))

;; "H"
(assert (= block_index1 o))

;; "int__content'result'unused"
(define-fun int__contentqtresultqtunused2 () Int
  bytes_remaining1)

;; "o"
(define-fun o1 () Bool
  (ite (< 0 bytes_remaining1) true false))

;; "infix >'result'unused"
(define-fun infix_gtqtresultqtunused () Bool
  o1)

(declare-const spark__branch Bool)

;; "spark__branch'unused"
(define-fun spark__branchqtunused () bool__ref
  (bool__refqtmk spark__branch))

;; "H"
(assert (= spark__branch o1))

;; "bool__content'result'unused"
(define-fun bool__contentqtresultqtunused () Bool
  spark__branch)

;; "H"
(assert (= spark__branch true))

;; "temp___970"
(define-fun temp___970 () Int
  (last input))

;; "last'result'unused"
(define-fun lastqtresultqtunused () Int
  temp___970)

;; "int__content'result'unused"
(define-fun int__contentqtresultqtunused3 () Int
  bytes_remaining1)

;; "o"
(define-fun o2 () Int
  (last input))

;; "last'result'unused"
(define-fun lastqtresultqtunused1 () Int
  o2)

;; "o"
(define-fun o3 () Int
  (- o2 bytes_remaining1))

;; "infix -'result'unused"
(define-fun infix_mnqtresultqtunused () Int
  o3)

;; "Ensures"
(assert (in_range o3))

;; "range_check_'result'unused"
(define-fun range_check_qtresultqtunused () Int
  o3)

;; "o"
(define-fun o4 () Int
  (+ o3 1))

;; "infix +'result'unused"
(define-fun infix_plqtresultqtunused1 () Int
  o4)

;; "Ensures"
(assert (in_range o4))

;; "range_check_'result'unused"
(define-fun range_check_qtresultqtunused1 () Int
  o4)

;; "H"
(assert (<= o4 temp___970))

;; Goal "def'vc"
;; File "sparknacl-hashing-rfsb509.adb", line 68, characters 0-0
(assert
  (not (<= (first input) o4)))

(check-sat)
